150
1 2
1 10
1 14
1 15
1 17
1 18
1 23
1 27
1 32
1 34
1 38
1 39
1 42
1 43
1 44
1 46
1 47
1 52
1 57
1 64
1 65
1 66
1 68
1 72
1 75
1 78
1 79
1 84
1 85
1 91
1 99
1 100
1 101
1 102
1 113
1 115
1 119
1 121
1 122
1 124
1 125
1 132
1 137
1 142
1 145
1 146
1 147
2 3
2 8
2 10
2 20
2 26
2 29
2 32
2 35
2 37
2 40
2 42
2 44
2 49
2 50
2 51
2 57
2 63
2 75
2 85
2 86
2 87
2 92
2 93
2 94
2 96
2 101
2 104
2 109
2 113
2 114
2 119
2 120
2 122
2 126
2 129
2 132
2 134
2 139
2 146
2 147
3 4
3 6
3 17
3 18
3 19
3 20
3 25
3 28
3 29
3 39
3 43
3 44
3 45
3 56
3 60
3 65
3 68
3 70
3 72
3 74
3 75
3 79
3 80
3 85
3 100
3 101
3 102
3 104
3 105
3 107
3 117
3 123
3 124
3 128
3 131
3 143
3 147
3 149
4 5
4 12
4 14
4 16
4 21
4 22
4 28
4 29
4 32
4 36
4 37
4 38
4 39
4 46
4 47
4 50
4 52
4 54
4 58
4 62
4 65
4 66
4 67
4 68
4 71
4 80
4 90
4 93
4 98
4 100
4 107
4 110
4 113
4 116
4 118
4 119
4 121
4 123
4 131
4 132
4 142
4 148
4 149
5 6
5 13
5 16
5 22
5 23
5 25
5 26
5 27
5 31
5 32
5 34
5 49
5 51
5 55
5 63
5 64
5 66
5 72
5 73
5 74
5 77
5 84
5 87
5 89
5 90
5 91
5 98
5 105
5 109
5 110
5 115
5 123
5 133
5 134
5 136
5 137
5 138
5 141
5 147
6 7
6 8
6 10
6 14
6 19
6 20
6 26
6 27
6 28
6 33
6 38
6 40
6 41
6 43
6 50
6 54
6 58
6 65
6 72
6 79
6 80
6 85
6 87
6 93
6 99
6 101
6 103
6 107
6 112
6 115
6 118
6 127
6 133
6 137
6 141
6 144
6 146
6 148
7 8
7 14
7 19
7 24
7 26
7 27
7 28
7 45
7 46
7 47
7 49
7 61
7 64
7 68
7 69
7 72
7 76
7 78
7 84
7 86
7 89
7 96
7 97
7 98
7 101
7 106
7 107
7 109
7 110
7 111
7 114
7 116
7 118
7 121
7 123
7 124
7 126
7 127
7 130
7 135
7 145
7 146
7 150
8 9
8 13
8 15
8 18
8 25
8 27
8 28
8 29
8 33
8 37
8 42
8 48
8 51
8 54
8 57
8 58
8 62
8 64
8 65
8 67
8 68
8 69
8 71
8 72
8 74
8 76
8 84
8 90
8 91
8 95
8 98
8 102
8 103
8 106
8 110
8 111
8 112
8 116
8 117
8 120
8 121
8 127
8 128
8 134
8 139
8 147
8 150
9 10
9 21
9 27
9 29
9 30
9 31
9 47
9 52
9 54
9 57
9 58
9 59
9 63
9 66
9 69
9 70
9 72
9 77
9 79
9 80
9 82
9 89
9 95
9 108
9 109
9 112
9 113
9 115
9 125
9 127
9 128
9 137
9 138
9 145
9 147
9 149
10 11
10 18
10 20
10 25
10 33
10 37
10 39
10 43
10 49
10 64
10 68
10 70
10 72
10 76
10 80
10 82
10 89
10 90
10 94
10 106
10 107
10 108
10 115
10 116
10 121
10 126
10 128
10 130
10 133
10 142
10 143
10 149
11 12
11 18
11 26
11 27
11 28
11 29
11 30
11 32
11 35
11 36
11 38
11 43
11 45
11 54
11 59
11 62
11 67
11 77
11 81
11 82
11 85
11 89
11 90
11 97
11 100
11 102
11 105
11 109
11 113
11 116
11 121
11 125
11 128
11 135
11 136
11 139
11 143
11 144
12 13
12 27
12 29
12 30
12 32
12 35
12 38
12 43
12 47
12 48
12 49
12 50
12 53
12 58
12 60
12 61
12 67
12 69
12 85
12 86
12 87
12 91
12 93
12 94
12 97
12 100
12 101
12 107
12 110
12 114
12 118
12 122
12 134
12 139
12 143
12 146
12 147
12 149
13 14
13 16
13 17
13 20
13 23
13 25
13 29
13 31
13 34
13 35
13 37
13 38
13 40
13 41
13 43
13 48
13 55
13 56
13 58
13 61
13 64
13 68
13 69
13 71
13 76
13 78
13 81
13 90
13 92
13 94
13 97
13 104
13 106
13 108
13 117
13 120
13 125
13 126
13 127
13 135
13 137
14 15
14 23
14 27
14 31
14 42
14 43
14 51
14 53
14 59
14 60
14 63
14 64
14 70
14 71
14 72
14 73
14 74
14 75
14 76
14 80
14 81
14 82
14 83
14 84
14 85
14 86
14 91
14 95
14 98
14 100
14 103
14 104
14 108
14 109
14 111
14 116
14 127
14 132
14 133
14 139
14 141
14 145
14 147
15 16
15 18
15 22
15 23
15 25
15 27
15 30
15 32
15 37
15 38
15 42
15 43
15 44
15 48
15 49
15 50
15 52
15 53
15 54
15 57
15 61
15 62
15 66
15 71
15 84
15 87
15 90
15 94
15 98
15 105
15 108
15 110
15 111
15 112
15 116
15 120
15 121
15 122
15 124
15 125
15 138
15 140
15 141
15 143
15 144
15 146
15 150
16 17
16 18
16 19
16 24
16 27
16 28
16 33
16 35
16 36
16 44
16 46
16 49
16 50
16 54
16 55
16 56
16 58
16 62
16 69
16 74
16 75
16 78
16 79
16 80
16 82
16 83
16 85
16 86
16 90
16 91
16 97
16 100
16 105
16 108
16 111
16 112
16 114
16 116
16 117
16 119
16 124
16 125
16 126
16 128
16 131
16 135
16 137
16 138
16 141
16 142
16 146
16 147
16 149
17 18
17 19
17 20
17 23
17 26
17 30
17 31
17 32
17 33
17 37
17 40
17 43
17 44
17 48
17 52
17 62
17 64
17 68
17 76
17 77
17 80
17 86
17 92
17 96
17 97
17 99
17 103
17 106
17 110
17 112
17 115
17 117
17 118
17 125
17 126
17 132
17 135
17 140
17 141
17 145
17 148
18 19
18 20
18 24
18 25
18 29
18 33
18 36
18 39
18 42
18 44
18 46
18 50
18 55
18 59
18 65
18 66
18 67
18 70
18 75
18 77
18 78
18 83
18 88
18 92
18 95
18 102
18 107
18 120
18 123
18 124
18 129
18 136
18 137
18 139
18 143
18 144
19 20
19 21
19 24
19 26
19 27
19 28
19 32
19 33
19 37
19 38
19 39
19 44
19 45
19 48
19 51
19 58
19 59
19 64
19 66
19 68
19 70
19 76
19 78
19 80
19 87
19 89
19 93
19 95
19 98
19 101
19 104
19 105
19 116
19 121
19 126
19 128
19 135
19 138
19 141
19 146
19 149
20 21
20 23
20 27
20 28
20 34
20 35
20 38
20 40
20 41
20 51
20 52
20 54
20 60
20 63
20 66
20 69
20 73
20 74
20 76
20 78
20 79
20 86
20 87
20 89
20 91
20 99
20 104
20 106
20 107
20 108
20 113
20 115
20 118
20 126
20 128
20 130
20 146
20 148
20 149
20 150
21 22
21 25
21 26
21 27
21 28
21 32
21 34
21 36
21 37
21 38
21 40
21 41
21 42
21 43
21 47
21 49
21 53
21 56
21 64
21 66
21 67
21 68
21 70
21 72
21 75
21 77
21 79
21 83
21 84
21 85
21 91
21 92
21 93
21 100
21 110
21 112
21 114
21 116
21 119
21 122
21 123
21 124
21 125
21 130
21 142
21 149
21 150
22 23
22 32
22 34
22 37
22 38
22 41
22 57
22 58
22 60
22 62
22 64
22 65
22 67
22 69
22 72
22 84
22 85
22 86
22 93
22 94
22 96
22 98
22 100
22 101
22 110
22 125
22 132
22 135
22 138
22 139
22 140
22 143
22 147
22 150
23 24
23 27
23 29
23 32
23 37
23 40
23 42
23 53
23 54
23 69
23 76
23 88
23 93
23 95
23 97
23 100
23 105
23 111
23 113
23 117
23 123
23 128
23 129
23 130
23 131
23 135
23 147
23 150
24 25
24 27
24 36
24 37
24 39
24 41
24 46
24 54
24 58
24 61
24 62
24 65
24 66
24 67
24 68
24 69
24 72
24 73
24 76
24 77
24 84
24 85
24 88
24 89
24 103
24 104
24 107
24 111
24 112
24 115
24 119
24 123
24 125
24 126
24 127
24 128
24 132
24 133
24 135
24 136
24 141
24 145
24 147
24 148
24 149
24 150
25 26
25 27
25 28
25 30
25 32
25 33
25 34
25 37
25 40
25 42
25 43
25 51
25 52
25 54
25 59
25 61
25 63
25 68
25 76
25 82
25 83
25 84
25 90
25 91
25 97
25 106
25 108
25 111
25 123
25 124
25 131
25 133
25 136
25 144
25 145
25 146
25 147
26 27
26 33
26 34
26 42
26 45
26 50
26 53
26 55
26 60
26 65
26 67
26 69
26 77
26 78
26 87
26 88
26 91
26 96
26 97
26 98
26 101
26 103
26 104
26 105
26 113
26 124
26 128
26 133
26 135
26 136
26 137
26 139
26 141
27 28
27 36
27 44
27 47
27 49
27 52
27 53
27 54
27 61
27 63
27 72
27 74
27 77
27 78
27 80
27 86
27 89
27 90
27 93
27 96
27 97
27 100
27 102
27 111
27 115
27 118
27 123
27 124
27 128
27 130
27 136
27 139
27 140
27 142
28 29
28 30
28 31
28 34
28 37
28 39
28 41
28 43
28 44
28 47
28 49
28 50
28 52
28 63
28 66
28 70
28 71
28 73
28 75
28 78
28 82
28 83
28 84
28 91
28 92
28 93
28 95
28 97
28 99
28 103
28 105
28 108
28 109
28 111
28 125
28 132
28 133
28 136
28 143
29 30
29 31
29 34
29 37
29 43
29 44
29 46
29 48
29 51
29 53
29 54
29 58
29 68
29 71
29 81
29 94
29 105
29 110
29 111
29 116
29 118
29 120
29 124
29 126
29 130
29 136
29 139
29 143
29 144
29 145
29 146
30 31
30 35
30 42
30 51
30 62
30 68
30 72
30 77
30 83
30 85
30 88
30 91
30 93
30 95
30 100
30 101
30 104
30 106
30 108
30 109
30 110
30 114
30 116
30 118
30 121
30 128
30 131
30 132
30 133
30 138
30 139
30 142
30 145
31 32
31 43
31 45
31 48
31 49
31 54
31 56
31 57
31 61
31 64
31 69
31 75
31 76
31 78
31 82
31 83
31 84
31 85
31 87
31 90
31 95
31 97
31 103
31 106
31 111
31 113
31 115
31 119
31 120
31 129
31 130
31 132
31 133
31 136
31 139
31 141
31 144
31 145
31 146
31 147
32 33
32 36
32 39
32 40
32 42
32 43
32 49
32 52
32 53
32 55
32 56
32 65
32 70
32 72
32 74
32 76
32 79
32 80
32 85
32 94
32 95
32 96
32 99
32 102
32 104
32 106
32 111
32 120
32 121
32 130
32 145
32 146
32 148
32 150
33 34
33 47
33 50
33 51
33 52
33 53
33 56
33 59
33 65
33 66
33 69
33 72
33 75
33 77
33 78
33 82
33 95
33 96
33 97
33 98
33 103
33 105
33 108
33 110
33 113
33 116
33 119
33 120
33 124
33 125
33 127
33 129
33 133
33 135
33 137
33 138
33 140
33 142
34 35
34 38
34 40
34 49
34 51
34 53
34 54
34 70
34 72
34 80
34 94
34 95
34 97
34 99
34 103
34 104
34 107
34 109
34 114
34 118
34 119
34 122
34 125
34 131
34 132
34 136
34 138
34 148
35 36
35 40
35 44
35 49
35 51
35 53
35 54
35 55
35 58
35 62
35 63
35 64
35 65
35 71
35 73
35 75
35 79
35 85
35 86
35 87
35 94
35 97
35 98
35 104
35 109
35 110
35 111
35 112
35 114
35 121
35 123
35 128
35 135
35 137
35 138
35 140
35 141
35 142
35 143
35 145
35 150
36 37
36 46
36 49
36 52
36 53
36 55
36 56
36 59
36 64
36 65
36 66
36 67
36 69
36 73
36 79
36 82
36 85
36 86
36 90
36 95
36 99
36 100
36 102
36 106
36 110
36 111
36 112
36 113
36 114
36 115
36 116
36 117
36 119
36 123
36 127
36 128
36 134
36 136
36 140
36 147
37 38
37 47
37 49
37 53
37 54
37 55
37 56
37 58
37 66
37 67
37 82
37 83
37 86
37 88
37 91
37 94
37 105
37 106
37 107
37 113
37 116
37 121
37 123
37 125
37 132
37 140
37 144
37 149
38 39
38 40
38 50
38 59
38 61
38 65
38 73
38 78
38 79
38 81
38 83
38 86
38 87
38 94
38 97
38 105
38 106
38 107
38 113
38 118
38 121
38 122
38 123
38 124
38 126
38 129
38 141
38 144
39 40
39 41
39 47
39 52
39 63
39 69
39 77
39 82
39 92
39 94
39 95
39 101
39 102
39 103
39 107
39 110
39 111
39 116
39 120
39 122
39 124
39 125
39 133
39 136
39 138
39 139
39 141
39 143
40 41
40 43
40 45
40 51
40 56
40 61
40 70
40 74
40 77
40 81
40 86
40 87
40 94
40 103
40 106
40 110
40 111
40 112
40 113
40 116
40 122
40 126
40 128
40 134
40 144
40 150
41 42
41 43
41 45
41 47
41 51
41 53
41 59
41 66
41 68
41 69
41 72
41 73
41 74
41 75
41 77
41 78
41 80
41 84
41 86
41 88
41 91
41 97
41 98
41 100
41 104
41 106
41 109
41 110
41 114
41 118
41 126
41 127
41 128
41 131
41 138
41 145
41 148
41 149
41 150
42 43
42 47
42 53
42 56
42 60
42 71
42 76
42 81
42 82
42 83
42 86
42 88
42 89
42 94
42 97
42 100
42 101
42 102
42 103
42 109
42 118
42 124
42 128
42 130
42 131
42 132
42 139
42 140
42 143
42 145
43 44
43 46
43 47
43 48
43 53
43 55
43 61
43 62
43 63
43 64
43 68
43 74
43 80
43 82
43 83
43 84
43 87
43 94
43 97
43 99
43 100
43 105
43 108
43 114
43 124
43 128
43 129
43 130
43 131
43 137
43 138
43 139
43 140
43 141
43 150
44 45
44 51
44 52
44 58
44 61
44 65
44 66
44 76
44 77
44 78
44 79
44 86
44 88
44 92
44 94
44 101
44 102
44 108
44 111
44 120
44 124
44 125
44 130
44 131
44 132
44 135
44 149
45 46
45 47
45 49
45 50
45 52
45 57
45 58
45 59
45 61
45 62
45 63
45 65
45 66
45 69
45 70
45 79
45 83
45 84
45 87
45 90
45 97
45 98
45 99
45 100
45 110
45 111
45 113
45 115
45 118
45 120
45 121
45 123
45 124
45 127
45 128
45 130
45 132
45 138
45 139
45 141
45 142
46 47
46 52
46 54
46 59
46 64
46 71
46 74
46 75
46 78
46 79
46 80
46 83
46 86
46 93
46 94
46 95
46 96
46 98
46 105
46 106
46 109
46 111
46 113
46 117
46 122
46 124
46 125
46 126
46 129
46 130
46 135
46 136
46 142
46 145
46 147
46 148
46 149
46 150
47 48
47 51
47 52
47 53
47 60
47 66
47 67
47 77
47 80
47 81
47 88
47 89
47 94
47 95
47 97
47 101
47 103
47 106
47 108
47 119
47 121
47 122
47 128
47 130
47 131
47 134
47 135
47 136
48 49
48 51
48 54
48 55
48 59
48 64
48 67
48 68
48 72
48 74
48 79
48 81
48 89
48 94
48 99
48 100
48 101
48 105
48 108
48 111
48 113
48 116
48 118
48 132
48 135
48 136
48 145
48 146
48 147
48 150
49 50
49 52
49 54
49 58
49 67
49 68
49 75
49 77
49 78
49 80
49 81
49 82
49 87
49 93
49 98
49 106
49 107
49 108
49 109
49 113
49 114
49 122
49 125
49 126
49 127
49 129
49 130
49 133
49 134
49 136
49 145
49 146
49 148
49 149
50 51
50 52
50 65
50 66
50 72
50 81
50 96
50 100
50 110
50 118
50 122
50 125
50 132
50 136
50 142
50 146
50 147
50 148
51 52
51 55
51 56
51 63
51 64
51 72
51 73
51 74
51 82
51 85
51 86
51 87
51 91
51 95
51 100
51 103
51 115
51 117
51 119
51 123
51 127
51 140
51 146
52 53
52 60
52 63
52 74
52 76
52 82
52 91
52 98
52 99
52 104
52 110
52 113
52 123
52 124
52 125
52 128
52 130
52 131
52 132
52 133
52 134
52 136
52 138
52 140
52 147
52 149
53 54
53 55
53 56
53 63
53 66
53 68
53 80
53 91
53 94
53 106
53 107
53 108
53 110
53 112
53 115
53 118
53 120
53 122
53 126
53 128
53 129
53 131
53 139
53 147
53 148
54 55
54 58
54 59
54 60
54 65
54 72
54 74
54 77
54 79
54 80
54 81
54 82
54 84
54 85
54 87
54 88
54 92
54 97
54 100
54 103
54 104
54 107
54 108
54 115
54 117
54 119
54 120
54 129
54 130
54 133
54 143
54 145
54 149
55 56
55 60
55 65
55 70
55 73
55 75
55 76
55 78
55 79
55 83
55 86
55 87
55 88
55 98
55 103
55 107
55 115
55 117
55 118
55 119
55 121
55 123
55 139
55 142
55 144
55 145
56 57
56 61
56 62
56 65
56 66
56 67
56 68
56 69
56 73
56 77
56 80
56 82
56 87
56 93
56 96
56 97
56 98
56 100
56 104
56 106
56 113
56 117
56 118
56 119
56 121
56 123
56 130
56 131
56 134
56 137
56 141
56 143
56 144
57 58
57 60
57 66
57 67
57 70
57 71
57 73
57 74
57 77
57 78
57 80
57 83
57 85
57 92
57 93
57 95
57 99
57 100
57 110
57 112
57 115
57 120
57 121
57 124
57 125
57 126
57 127
57 129
57 130
57 133
57 134
57 142
57 149
58 59
58 60
58 61
58 62
58 67
58 70
58 80
58 88
58 94
58 96
58 97
58 98
58 105
58 106
58 108
58 110
58 112
58 113
58 114
58 115
58 120
58 122
58 126
58 132
58 134
58 135
58 138
58 145
58 150
59 60
59 61
59 65
59 68
59 70
59 72
59 74
59 77
59 90
59 95
59 97
59 100
59 101
59 103
59 104
59 106
59 113
59 120
59 123
59 132
59 136
59 138
59 141
59 144
59 146
60 61
60 65
60 67
60 68
60 74
60 75
60 78
60 86
60 88
60 89
60 95
60 96
60 100
60 106
60 109
60 114
60 120
60 121
60 124
60 126
60 127
60 128
60 129
60 131
60 132
60 135
60 140
60 141
60 142
61 62
61 65
61 67
61 69
61 71
61 82
61 84
61 85
61 86
61 91
61 92
61 93
61 95
61 96
61 98
61 100
61 101
61 108
61 113
61 114
61 116
61 118
61 121
61 122
61 123
61 136
61 142
61 145
61 148
61 150
62 63
62 65
62 67
62 68
62 71
62 72
62 74
62 79
62 82
62 83
62 88
62 90
62 95
62 98
62 105
62 109
62 111
62 113
62 114
62 117
62 122
62 128
62 130
62 131
62 135
62 136
62 143
63 64
63 67
63 68
63 69
63 71
63 86
63 96
63 103
63 105
63 108
63 111
63 112
63 113
63 114
63 115
63 121
63 124
63 125
63 129
63 131
63 139
63 142
63 144
63 148
64 65
64 67
64 69
64 70
64 73
64 74
64 75
64 80
64 81
64 85
64 86
64 87
64 90
64 92
64 97
64 99
64 101
64 104
64 105
64 107
64 110
64 112
64 113
64 118
64 119
64 125
64 130
64 132
64 133
64 138
64 142
64 143
64 147
65 66
65 73
65 76
65 78
65 79
65 82
65 86
65 91
65 99
65 100
65 102
65 104
65 105
65 106
65 108
65 113
65 115
65 118
65 122
65 123
65 124
65 125
65 127
65 132
65 135
65 136
65 139
65 141
65 144
66 67
66 68
66 71
66 77
66 78
66 81
66 87
66 90
66 91
66 95
66 99
66 103
66 104
66 105
66 109
66 112
66 117
66 126
66 127
66 130
66 132
66 136
66 138
67 68
67 69
67 70
67 71
67 73
67 74
67 78
67 79
67 83
67 86
67 89
67 91
67 94
67 95
67 98
67 103
67 107
67 113
67 114
67 131
67 134
67 143
68 69
68 72
68 74
68 76
68 77
68 79
68 85
68 91
68 94
68 100
68 103
68 106
68 113
68 117
68 119
68 120
68 121
68 128
68 133
68 136
68 141
68 144
68 149
68 150
69 70
69 74
69 75
69 80
69 83
69 85
69 90
69 95
69 97
69 99
69 101
69 103
69 104
69 107
69 110
69 111
69 112
69 117
69 124
69 131
69 135
69 138
69 139
69 143
69 145
70 71
70 72
70 76
70 86
70 87
70 88
70 89
70 94
70 99
70 100
70 101
70 102
70 105
70 110
70 114
70 117
70 122
70 125
70 130
70 131
70 135
70 137
70 144
70 146
70 148
70 150
71 72
71 75
71 77
71 81
71 85
71 89
71 90
71 91
71 112
71 115
71 116
71 118
71 119
71 120
71 122
71 135
71 142
71 143
71 147
71 148
71 149
72 73
72 81
72 88
72 90
72 92
72 96
72 99
72 102
72 106
72 107
72 108
72 109
72 114
72 117
72 124
72 125
72 129
72 130
72 134
72 136
72 148
73 74
73 77
73 79
73 85
73 86
73 88
73 97
73 99
73 101
73 103
73 104
73 108
73 110
73 111
73 113
73 115
73 116
73 120
73 122
73 136
73 138
73 146
73 147
74 75
74 81
74 90
74 92
74 94
74 95
74 101
74 107
74 110
74 111
74 113
74 114
74 119
74 121
74 122
74 123
74 125
74 131
74 140
74 143
74 149
75 76
75 80
75 85
75 88
75 89
75 91
75 95
75 98
75 99
75 100
75 103
75 104
75 105
75 108
75 111
75 117
75 118
75 119
75 134
75 137
75 139
75 140
75 145
75 148
75 149
76 77
76 89
76 99
76 101
76 107
76 110
76 114
76 116
76 119
76 122
76 133
76 137
76 138
76 139
76 141
76 142
76 147
77 78
77 81
77 82
77 83
77 87
77 91
77 98
77 101
77 103
77 104
77 110
77 113
77 115
77 116
77 120
77 127
77 132
77 133
77 134
77 135
77 136
77 139
77 148
78 79
78 80
78 81
78 99
78 103
78 104
78 106
78 117
78 119
78 135
78 136
78 137
78 144
78 146
79 80
79 84
79 89
79 94
79 97
79 105
79 107
79 111
79 113
79 114
79 118
79 126
79 127
79 130
79 135
79 139
79 141
79 145
79 147
80 81
80 84
80 90
80 91
80 96
80 97
80 110
80 114
80 128
80 132
80 136
80 140
80 142
80 144
80 145
80 150
81 82
81 83
81 88
81 90
81 93
81 98
81 105
81 107
81 109
81 113
81 118
81 119
81 121
81 123
81 124
81 125
81 126
81 132
81 133
81 136
81 137
81 141
81 145
82 83
82 97
82 99
82 103
82 107
82 110
82 112
82 128
82 134
82 135
82 141
82 142
83 84
83 87
83 88
83 95
83 100
83 101
83 102
83 104
83 106
83 107
83 109
83 110
83 111
83 116
83 117
83 121
83 129
83 131
83 134
83 135
83 143
83 148
84 85
84 87
84 96
84 98
84 100
84 109
84 129
84 132
84 138
84 139
84 142
84 148
84 150
85 86
85 89
85 91
85 97
85 103
85 110
85 114
85 115
85 117
85 119
85 120
85 121
85 122
85 126
85 128
85 131
85 133
85 135
85 136
85 143
85 145
85 147
86 87
86 89
86 91
86 94
86 97
86 98
86 99
86 100
86 106
86 109
86 111
86 113
86 115
86 117
86 122
86 127
86 133
86 136
86 138
86 139
86 140
86 144
86 147
86 150
87 88
87 90
87 91
87 99
87 100
87 104
87 105
87 106
87 113
87 115
87 119
87 121
87 123
87 126
87 129
87 132
87 134
87 139
87 141
87 142
87 145
87 149
88 89
88 96
88 97
88 101
88 102
88 108
88 111
88 116
88 117
88 124
88 126
88 128
88 132
88 133
88 134
88 138
88 144
88 147
88 150
89 90
89 91
89 93
89 96
89 97
89 98
89 99
89 103
89 106
89 118
89 120
89 121
89 125
89 127
89 129
89 131
89 136
89 137
89 139
90 91
90 98
90 105
90 109
90 115
90 116
90 118
90 119
90 122
90 127
90 129
90 130
90 134
90 138
90 146
90 148
91 92
91 95
91 102
91 103
91 108
91 110
91 111
91 120
91 121
91 122
91 124
91 126
91 128
91 129
91 135
91 136
91 137
91 138
91 139
91 141
91 143
91 146
91 147
92 93
92 99
92 100
92 102
92 104
92 105
92 108
92 111
92 112
92 117
92 118
92 119
92 124
92 125
92 126
92 129
92 133
92 134
92 136
92 139
92 143
92 144
92 146
92 148
92 150
93 94
93 96
93 97
93 102
93 103
93 106
93 107
93 110
93 111
93 112
93 114
93 115
93 117
93 130
93 135
93 139
93 140
93 141
93 143
93 144
93 148
94 95
94 97
94 98
94 102
94 128
94 129
94 132
94 133
94 135
94 136
94 137
94 141
94 144
94 146
94 149
94 150
95 96
95 97
95 99
95 103
95 104
95 107
95 117
95 123
95 127
95 135
95 136
95 140
95 142
95 145
95 150
96 97
96 104
96 107
96 108
96 113
96 116
96 118
96 121
96 122
96 130
96 132
96 138
96 139
96 150
97 98
97 105
97 111
97 119
97 122
97 126
97 127
97 130
97 132
97 135
97 136
97 138
97 139
97 144
97 147
98 99
98 101
98 103
98 104
98 106
98 108
98 112
98 114
98 116
98 118
98 119
98 122
98 127
98 128
98 131
98 132
98 139
98 143
98 145
98 148
98 149
99 100
99 101
99 104
99 112
99 116
99 120
99 122
99 127
99 129
99 138
99 145
99 147
99 148
100 101
100 103
100 105
100 108
100 110
100 111
100 112
100 119
100 127
100 135
100 136
100 138
100 139
100 148
100 149
100 150
101 102
101 105
101 106
101 108
101 112
101 113
101 117
101 122
101 125
101 126
101 128
101 137
101 139
101 140
101 148
101 149
101 150
102 103
102 110
102 111
102 116
102 117
102 119
102 122
102 126
102 128
102 129
102 132
102 134
102 137
102 138
102 139
102 140
102 141
102 143
102 148
103 104
103 108
103 111
103 112
103 115
103 120
103 127
103 128
103 131
103 132
103 134
103 137
103 139
103 145
103 149
104 105
104 109
104 110
104 111
104 112
104 114
104 119
104 121
104 124
104 128
104 129
104 131
104 132
104 133
104 134
104 137
104 138
104 139
104 142
104 143
104 144
104 147
104 149
105 106
105 111
105 112
105 121
105 128
105 136
105 140
105 142
105 145
105 146
105 148
106 107
106 111
106 113
106 114
106 118
106 121
106 123
106 128
106 131
106 132
106 133
106 143
106 149
107 108
107 110
107 111
107 115
107 116
107 117
107 119
107 120
107 124
107 129
107 130
107 132
107 143
107 146
108 109
108 111
108 113
108 128
108 131
108 132
108 138
108 146
108 147
108 148
108 150
109 110
109 111
109 112
109 114
109 115
109 121
109 125
109 126
109 136
109 139
109 140
109 141
109 142
109 143
109 146
109 147
110 111
110 114
110 115
110 118
110 120
110 123
110 126
110 128
110 129
110 130
110 131
110 135
110 136
110 142
110 143
110 145
110 146
110 148
111 112
111 117
111 123
111 136
111 139
111 143
111 145
111 146
111 148
112 113
112 116
112 123
112 130
112 135
112 136
112 137
112 139
112 144
112 149
112 150
113 114
113 117
113 119
113 122
113 125
113 127
113 130
113 133
113 134
113 137
113 138
113 139
113 140
113 141
113 144
113 147
113 148
114 115
114 122
114 123
114 124
114 125
114 126
114 127
114 134
114 136
114 139
114 146
115 116
115 119
115 131
115 132
115 134
115 145
115 146
115 150
116 117
116 121
116 126
116 136
116 139
116 141
116 142
116 143
116 144
116 145
117 118
117 122
117 123
117 125
117 131
117 135
117 136
117 142
117 143
117 145
117 147
118 119
118 120
118 126
118 136
118 137
118 141
118 144
118 146
118 148
118 150
119 120
119 121
119 122
119 126
119 142
119 146
119 147
119 149
120 121
120 122
120 125
120 126
120 131
120 135
120 142
120 146
120 148
120 150
121 122
121 123
121 130
121 139
121 140
121 143
121 146
122 123
122 136
122 138
122 141
122 147
122 148
123 124
123 126
123 134
123 141
123 147
124 125
124 127
124 129
124 135
124 139
124 141
124 145
124 148
125 126
125 127
125 130
125 132
125 134
125 136
125 138
125 139
125 142
125 144
125 145
126 127
126 131
126 136
126 137
126 141
126 145
126 148
126 149
127 128
127 134
127 136
127 140
127 146
127 148
128 129
128 138
128 139
128 141
128 148
128 150
129 130
129 131
129 134
129 135
129 137
129 141
129 143
129 150
130 131
130 136
130 141
130 150
131 132
131 137
131 139
131 141
131 142
131 149
132 133
132 138
132 140
132 142
132 144
133 134
133 138
133 145
133 146
134 135
134 137
134 141
134 142
134 143
134 145
134 150
135 136
135 138
135 140
135 144
135 145
135 146
135 148
136 137
136 138
136 144
136 146
136 148
136 150
137 138
137 139
137 142
137 143
138 139
138 147
139 140
139 143
139 144
139 147
139 150
140 141
140 146
141 142
141 143
141 146
142 143
142 147
142 148
142 150
143 144
143 146
143 147
143 149
143 150
144 145
144 147
144 148
144 149
144 150
145 146
145 147
146 147
147 148
148 149
149 150
